164
1000
54
270
416
8
555
431
557
415
588
62
962
320
956
652
34
341
938
320
654
384
275
267
535
200
495
468
65
992
179
381
384
352
131
702
386
73
288
652
477
589
804
213
226
248
58
3
132
763
111
48
115
133
418
215
30
910
530
27
74
680
505
307
187
167
35
277
489
428
51
437
385
314
148
238
625
375
148
1
1000
196
153
533
737
38
465
535
756
61
91
478
494
48
449
914
258
889
131
445
264
237
409
762
828
847
298
127
737
151
111
633
318
501
592
275
67
96
627
501
221
142
869
219
885
320
653
8
572
408
563
40
254
409
275
200
723
367
16
149
44
196
181
680
587
160
263
413
253
346
86
591
388
752
294
520
92
487
390
123
91
480
411
9
29
126
